param i_n :=
BelowNM 0
NMtoIL 100000000.0
AboveIL 1000000000.0
;
param i_ttn :=
PV1 BelowNM 1
PV1 NMtoIL 0
PV1 AboveIL 0
PV1NM BelowNM 0
PV1NM NMtoIL 1
PV1NM AboveIL 0
CHP BelowNM 0
CHP NMtoIL 0
CHP AboveIL 0
UTIL1 BelowNM 0
UTIL1 NMtoIL 0
UTIL1 AboveIL 0
BOILER BelowNM 0
BOILER NMtoIL 0
BOILER AboveIL 0
ELECCHL BelowNM 0
ELECCHL NMtoIL 0
ELECCHL AboveIL 0
ABSORPCHL BelowNM 0
ABSORPCHL NMtoIL 0
ABSORPCHL AboveIL 0
;
